
<<< setup


<<< generate

Version identifier: 22.1.0.0 | 2022-03-09 | 1a383f8ce
Tried aggregator 1 time.
MIP Presolve eliminated 532 rows and 361 columns.
Reduced MIP has 590 rows, 6499 columns, and 40711 nonzeros.
Reduced MIP has 6498 binaries, 1 generals, 0 SOSs, and 0 indicators.
Presolve time = 0,02 sec. (22,74 ticks)
Tried aggregator 1 time.
Detecting symmetries...
Reduced MIP has 590 rows, 6499 columns, and 40711 nonzeros.
Reduced MIP has 6498 binaries, 1 generals, 0 SOSs, and 0 indicators.
Presolve time = 0,02 sec. (23,65 ticks)
Probing time = 0,01 sec. (3,67 ticks)
Clique table members: 532.
MIP emphasis: balance optimality and feasibility.
MIP search method: dynamic search.
Parallel mode: deterministic, using up to 12 threads.
Root relaxation solution time = 0,19 sec. (305,53 ticks)

        Nodes                                         Cuts/
   Node  Left     Objective  IInf  Best Integer    Best Bound    ItCnt     Gap

      0     0      872,0000   485                    872,0000       11         
*     0+    0                          872,0000      872,0000             0,00%
      0     0        cutoff            872,0000      872,0000       11    0,00%
Elapsed time = 2,72 sec. (3464,96 ticks, tree = 0,01 MB, solutions = 1)

Root node processing (before b&c):
  Real time             =    2,72 sec. (3465,31 ticks)
Parallel b&c, 12 threads:
  Real time             =    0,00 sec. (0,00 ticks)
  Sync time (average)   =    0,00 sec.
  Wait time (average)   =    0,00 sec.
                          ------------
Total (root+branch&cut) =    2,72 sec. (3465,31 ticks)

<<< solve


OBJECTIVE: 872
1 is free in round 17
1 plays 9 white matches, and 9 black matches
2 is free in round 16
2 plays 9 white matches, and 9 black matches
3 is free in round 1
3 plays 9 white matches, and 9 black matches
4 is free in round 9
4 plays 9 white matches, and 9 black matches
5 is free in round 13
5 plays 9 white matches, and 9 black matches
6 is free in round 14
6 plays 9 white matches, and 9 black matches
7 is free in round 5
7 plays 9 white matches, and 9 black matches
8 is free in round 6
8 plays 9 white matches, and 9 black matches
9 is free in round 2
9 plays 9 white matches, and 9 black matches
10 is free in round 10
10 plays 9 white matches, and 9 black matches
11 is free in round 3
11 plays 9 white matches, and 9 black matches
12 is free in round 12
12 plays 9 white matches, and 9 black matches
13 is free in round 11
13 plays 9 white matches, and 9 black matches
14 is free in round 19
14 plays 9 white matches, and 9 black matches
15 is free in round 18
15 plays 9 white matches, and 9 black matches
16 is free in round 4
16 plays 9 white matches, and 9 black matches
17 is free in round 8
17 plays 9 white matches, and 9 black matches
18 is free in round 7
18 plays 9 white matches, and 9 black matches
19 is free in round 15
19 plays 9 white matches, and 9 black matches
Slot 1
1 white, 15 black
2 white, 7 black
4 white, 6 black
9 white, 11 black
12 white, 5 black
14 white, 10 black
16 white, 8 black
17 white, 13 black
18 white, 19 black

Slot 2
2 white, 3 black
4 white, 18 black
5 white, 14 black
10 white, 12 black
11 white, 8 black
13 white, 15 black
16 white, 1 black
17 white, 6 black
19 white, 7 black

Slot 3
3 white, 4 black
7 white, 5 black
9 white, 6 black
12 white, 2 black
13 white, 1 black
15 white, 8 black
17 white, 16 black
18 white, 14 black
19 white, 10 black

Slot 4
2 white, 4 black
7 white, 11 black
8 white, 3 black
9 white, 1 black
10 white, 6 black
13 white, 19 black
14 white, 12 black
17 white, 5 black
18 white, 15 black

Slot 5
1 white, 10 black
2 white, 16 black
5 white, 8 black
6 white, 19 black
9 white, 4 black
11 white, 15 black
12 white, 18 black
13 white, 3 black
14 white, 17 black

Slot 6
2 white, 1 black
3 white, 18 black
4 white, 13 black
10 white, 9 black
11 white, 17 black
14 white, 7 black
15 white, 12 black
16 white, 6 black
19 white, 5 black

Slot 7
5 white, 1 black
6 white, 11 black
7 white, 4 black
10 white, 3 black
12 white, 8 black
15 white, 14 black
16 white, 13 black
17 white, 2 black
19 white, 9 black

Slot 8
1 white, 4 black
2 white, 8 black
6 white, 12 black
7 white, 15 black
9 white, 3 black
10 white, 18 black
13 white, 5 black
14 white, 19 black
16 white, 11 black

Slot 9
1 white, 14 black
3 white, 5 black
7 white, 12 black
8 white, 17 black
10 white, 16 black
11 white, 19 black
13 white, 6 black
15 white, 9 black
18 white, 2 black

Slot 10
3 white, 1 black
4 white, 12 black
5 white, 15 black
6 white, 2 black
7 white, 17 black
8 white, 19 black
11 white, 14 black
16 white, 9 black
18 white, 13 black

Slot 11
1 white, 11 black
3 white, 12 black
4 white, 16 black
5 white, 18 black
6 white, 7 black
8 white, 14 black
10 white, 2 black
15 white, 19 black
17 white, 9 black

Slot 12
1 white, 8 black
6 white, 5 black
11 white, 10 black
13 white, 9 black
14 white, 3 black
15 white, 4 black
16 white, 7 black
17 white, 18 black
19 white, 2 black

Slot 13
1 white, 19 black
2 white, 11 black
4 white, 10 black
6 white, 8 black
7 white, 3 black
13 white, 12 black
14 white, 16 black
15 white, 17 black
18 white, 9 black

Slot 14
1 white, 7 black
2 white, 13 black
4 white, 14 black
5 white, 10 black
9 white, 8 black
11 white, 18 black
12 white, 17 black
16 white, 15 black
19 white, 3 black

Slot 15
2 white, 14 black
4 white, 5 black
6 white, 15 black
7 white, 10 black
8 white, 13 black
11 white, 3 black
12 white, 9 black
17 white, 1 black
18 white, 16 black

Slot 16
3 white, 15 black
5 white, 11 black
7 white, 9 black
8 white, 4 black
10 white, 13 black
14 white, 6 black
16 white, 12 black
18 white, 1 black
19 white, 17 black

Slot 17
3 white, 6 black
8 white, 10 black
9 white, 5 black
12 white, 11 black
14 white, 13 black
15 white, 2 black
17 white, 4 black
18 white, 7 black
19 white, 16 black

Slot 18
1 white, 6 black
3 white, 16 black
4 white, 11 black
5 white, 2 black
8 white, 18 black
9 white, 14 black
10 white, 17 black
12 white, 19 black
13 white, 7 black

Slot 19
3 white, 17 black
5 white, 16 black
6 white, 18 black
8 white, 7 black
9 white, 2 black
11 white, 13 black
12 white, 1 black
15 white, 10 black
19 white, 4 black


<<< post process


<<< done

